\ LP format - for model browsing. Use MPS format to capture full model detail.
Minimize
  0 B15(0) + 0 B17(0) + 0 B20(0) + 0 B25(0) + 0 B27(0) + 0 B33(0) + 0 B35(0)
   + 0 B36(0) + 0 B39(0) + 0 B40(0) + 0 B42(0) + 0 B43(0) + 0 B44(0)
   + 0 B45(0) + 0 B46(0) + 0 B47(0) + 0 B50(0) + 0 B51(0) + 0 B52(0)
   + 0 B53(0) + 0 B54(0) + 0 B55(0) + 0 B60(0) + 0 B61(0) + 0 B62(0)
   + 0 B63(0) + 0 B65(0) + 0 B66(0) + 0 B67(0) + 0 B69(0) + 0 B70(0)
   + 0 B71(0) + 0 B72(0) + 0 B73(0) + 0 B74(0) + 0 B75(0) + 0 B78(0)
   + 0 B79(0) + 0 B80(0) + 0 B81(0) + 0 B82(0) + 0 B83(0) + 0 B85(0)
   + 0 B87(0) + 0 B88(0) + 0 B89(0) + 0 B90(0) + 0 B91(0) + 0 B92(0)
   + 0 B95(0) + I111(1)
Subject To
 c0: 50 B0(16) + I96(18) - 1e+07 B112(5) >= -9.99952e+06
 c1: 50 B0(16) + I96(18) - 1e+07 B112(5) <= 480
 c2: 60 B1(10) + I97(12) - 1e+07 B113(5) >= -9.99952e+06
 c3: 60 B1(10) + I97(12) - 1e+07 B113(5) <= 480
 c4: 70 B5(10) + I101(12) - 1e+07 B114(5) >= -9.99952e+06
 c5: 70 B5(10) + I101(12) - 1e+07 B114(5) <= 480
 c6: 90 B9(18) + I105(20) - 1e+07 B115(5) >= -9.99952e+06
 c7: 90 B9(18) + I105(20) - 1e+07 B115(5) <= 480
 c8: 100 B10(12) + I106(14) - 1e+07 B116(5) >= -9.99952e+06
 c9: 100 B10(12) + I106(14) - 1e+07 B116(5) <= 480
 c10: B112(5) >= 0
 c11: B113(5) >= 0
 c12: B114(5) >= 0
 c13: B115(5) >= 0
 c14: B116(5) >= 0
 c15: B0(16) + B1(10) = 1
 c16: B2(13) + B3(15) = 1
 c17: B4(14) = 1
 c18: B5(10) = 1
 c19: B6(13) + B7(13) = 1
 c20: B8(14) = 1
 c21: B9(18) + B10(12) = 1
 c22: B11(17) + B12(11) = 1
 c23: B13(12) + B14(18) = 1
 c24: - 1e+07 B0(16) + I96(18) <= 0
 c25: - 1e+07 B1(10) + I97(12) <= 0
 c26: - 1e+07 B2(13) + I98(14) <= 0
 c27: - 1e+07 B3(15) + I99(16) <= 0
 c28: - 1e+07 B4(14) + I100(14) <= 0
 c29: - 1e+07 B5(10) + I101(12) <= 0
 c30: - 1e+07 B6(13) + I102(14) <= 0
 c31: - 1e+07 B7(13) + I103(14) <= 0
 c32: - 1e+07 B8(14) + I104(14) <= 0
 c33: - 1e+07 B9(18) + I105(20) <= 0
 c34: - 1e+07 B10(12) + I106(14) <= 0
 c35: - 1e+07 B11(17) + I107(18) <= 0
 c36: - 1e+07 B12(11) + I108(12) <= 0
 c37: - 1e+07 B13(12) + I109(12) <= 0
 c38: - 1e+07 B14(18) + I110(18) <= 0
 c39: - 40 B2(13) - 130 B3(15) + I96(18) + I97(12) - I98(14) - I99(16)
   >= 0
 c40: - 17 B4(14) + I98(14) + I99(16) - I100(14) >= 0
 c41: - 150 B6(13) - 160 B7(13) + I101(12) - I102(14) - I103(14) >= 0
 c42: - 30 B8(14) + I102(14) + I103(14) - I104(14) >= 0
 c43: - 170 B11(17) - 180 B12(11) + I105(20) + I106(14) - I107(18)
   - I108(12) >= 0
 c44: - 50 B13(12) - 60 B14(18) + I107(18) + I108(12) - I109(12) - I110(18)
   >= 0
 c45: - 1e+07 B0(16) - 1e+07 B3(15) + 1e+07 B16(2) - I96(18) + I99(16)
   >= -1.9999518e+07
 c46: - 1e+07 B0(16) - 1e+07 B3(15) - 1e+07 B16(2) + I96(18) - I99(16)
   >= -2.9999764e+07
 c47: - 1e+07 B1(10) - 1e+07 B5(10) + 1e+07 B18(2) - I97(12) + I101(12)
   >= -1.9999814e+07
 c48: - 1e+07 B1(10) - 1e+07 B5(10) - 1e+07 B18(2) + I97(12) - I101(12)
   >= -2.9999828e+07
 c49: - 1e+07 B0(16) - 1e+07 B7(13) + 1e+07 B19(2) - I96(18) + I103(14)
   >= -1.999931e+07
 c50: - 1e+07 B0(16) - 1e+07 B7(13) - 1e+07 B19(2) + I96(18) - I103(14)
   >= -2.9999412e+07
 c51: - 1e+07 B0(16) - 1e+07 B9(18) + 1e+07 B21(4) - I96(18) + I105(20)
   >= -1.9999535e+07
 c52: - 1e+07 B0(16) - 1e+07 B9(18) - 1e+07 B21(4) + I96(18) - I105(20)
   >= -2.9999858e+07
 c53: - 1e+07 B1(10) - 1e+07 B10(12) + 1e+07 B21(4) - I97(12) + I106(14)
   >= -1.9999783e+07
 c54: - 1e+07 B1(10) - 1e+07 B10(12) - 1e+07 B21(4) + I97(12) - I106(14)
   >= -2.9999728e+07
 c55: - 1e+07 B0(16) - 1e+07 B11(17) + 1e+07 B22(4) - I96(18) + I107(18)
   >= -1.9999242e+07
 c56: - 1e+07 B0(16) - 1e+07 B11(17) - 1e+07 B22(4) + I96(18) - I107(18)
   >= -2.9999797e+07
 c57: - 1e+07 B1(10) - 1e+07 B12(11) + 1e+07 B22(4) - I97(12) + I108(12)
   >= -1.9999767e+07
 c58: - 1e+07 B1(10) - 1e+07 B12(11) - 1e+07 B22(4) + I97(12) - I108(12)
   >= -2.9999753e+07
 c59: - 1e+07 B0(16) - 1e+07 B14(18) + 1e+07 B23(2) - I96(18) + I110(18)
   >= -1.999975e+07
 c60: - 1e+07 B0(16) - 1e+07 B14(18) - 1e+07 B23(2) + I96(18) - I110(18)
   >= -2.999922e+07
 c61: - 1e+07 B0(16) - 1e+07 B3(15) + 1e+07 B24(2) + I96(18) - I99(16)
   >= -1.9999764e+07
 c62: - 1e+07 B0(16) - 1e+07 B3(15) - 1e+07 B24(2) - I96(18) + I99(16)
   >= -2.9999518e+07
 c63: - 1e+07 B2(13) - 1e+07 B4(14) + 1e+07 B26(2) - I98(14) + I100(14)
   >= -1.9999486e+07
 c64: - 1e+07 B2(13) - 1e+07 B4(14) - 1e+07 B26(2) + I98(14) - I100(14)
   >= -2.9999464e+07
 c65: - 1e+07 B2(13) - 1e+07 B6(13) + 1e+07 B28(4) - I98(14) + I102(14)
   >= -1.99998e+07
 c66: - 1e+07 B2(13) - 1e+07 B6(13) - 1e+07 B28(4) + I98(14) - I102(14)
   >= -2.9999346e+07
 c67: - 1e+07 B3(15) - 1e+07 B7(13) + 1e+07 B28(4) - I99(16) + I103(14)
   >= -1.9999295e+07
 c68: - 1e+07 B3(15) - 1e+07 B7(13) - 1e+07 B28(4) + I99(16) - I103(14)
   >= -2.999959e+07
 c69: - 1e+07 B2(13) - 1e+07 B8(14) + 1e+07 B29(2) - I98(14) + I104(14)
   >= -1.9999778e+07
 c70: - 1e+07 B2(13) - 1e+07 B8(14) - 1e+07 B29(2) + I98(14) - I104(14)
   >= -2.9999953e+07
 c71: - 1e+07 B3(15) - 1e+07 B9(18) + 1e+07 B30(2) - I99(16) + I105(20)
   >= -1.9999734e+07
 c72: - 1e+07 B3(15) - 1e+07 B9(18) - 1e+07 B30(2) + I99(16) - I105(20)
   >= -2.999979e+07
 c73: - 1e+07 B3(15) - 1e+07 B11(17) + 1e+07 B31(2) - I99(16) + I107(18)
   >= -1.9999715e+07
 c74: - 1e+07 B3(15) - 1e+07 B11(17) - 1e+07 B31(2) + I99(16) - I107(18)
   >= -2.9999754e+07
 c75: - 1e+07 B2(13) - 1e+07 B13(12) + 1e+07 B32(4) - I98(14) + I109(12)
   >= -1.999951e+07
 c76: - 1e+07 B2(13) - 1e+07 B13(12) - 1e+07 B32(4) + I98(14) - I109(12)
   >= -2.9999554e+07
 c77: - 1e+07 B3(15) - 1e+07 B14(18) + 1e+07 B32(4) - I99(16) + I110(18)
   >= -1.9999726e+07
 c78: - 1e+07 B3(15) - 1e+07 B14(18) - 1e+07 B32(4) + I99(16) - I110(18)
   >= -2.9999364e+07
 c79: - 1e+07 B2(13) - 1e+07 B4(14) + 1e+07 B34(2) + I98(14) - I100(14)
   >= -1.9999464e+07
 c80: - 1e+07 B2(13) - 1e+07 B4(14) - 1e+07 B34(2) - I98(14) + I100(14)
   >= -2.9999486e+07
 c81: - 1e+07 B4(14) - 1e+07 B6(13) + 1e+07 B37(2) - I100(14) + I102(14)
   >= -1.9999929e+07
 c82: - 1e+07 B4(14) - 1e+07 B6(13) - 1e+07 B37(2) + I100(14) - I102(14)
   >= -2.9999702e+07
 c83: - 1e+07 B4(14) - 1e+07 B8(14) + 1e+07 B38(2) - I100(14) + I104(14)
   >= -1.9999128e+07
 c84: - 1e+07 B4(14) - 1e+07 B8(14) - 1e+07 B38(2) + I100(14) - I104(14)
   >= -2.9999798e+07
 c85: - 1e+07 B4(14) - 1e+07 B13(12) + 1e+07 B41(2) - I100(14) + I109(12)
   >= -1.9999887e+07
 c86: - 1e+07 B4(14) - 1e+07 B13(12) - 1e+07 B41(2) + I100(14) - I109(12)
   >= -2.9999585e+07
 c87: - 1e+07 B5(10) - 1e+07 B10(12) + 1e+07 B48(2) - I101(12) + I106(14)
   >= -1.999945e+07
 c88: - 1e+07 B5(10) - 1e+07 B10(12) - 1e+07 B48(2) + I101(12) - I106(14)
   >= -2.9999716e+07
 c89: - 1e+07 B5(10) - 1e+07 B12(11) + 1e+07 B49(2) - I101(12) + I108(12)
   >= -1.999983e+07
 c90: - 1e+07 B5(10) - 1e+07 B12(11) - 1e+07 B49(2) + I101(12) - I108(12)
   >= -2.9999654e+07
 c91: - 1e+07 B6(13) - 1e+07 B8(14) + 1e+07 B56(2) - I102(14) + I104(14)
   >= -1.9999791e+07
 c92: - 1e+07 B6(13) - 1e+07 B8(14) - 1e+07 B56(2) + I102(14) - I104(14)
   >= -2.9999574e+07
 c93: - 1e+07 B7(13) - 1e+07 B9(18) + 1e+07 B57(2) - I103(14) + I105(20)
   >= -1.99992e+07
 c94: - 1e+07 B7(13) - 1e+07 B9(18) - 1e+07 B57(2) + I103(14) - I105(20)
   >= -2.9999852e+07
 c95: - 1e+07 B7(13) - 1e+07 B11(17) + 1e+07 B58(2) - I103(14) + I107(18)
   >= -1.9999552e+07
 c96: - 1e+07 B7(13) - 1e+07 B11(17) - 1e+07 B58(2) + I103(14) - I107(18)
   >= -2.9999566e+07
 c97: - 1e+07 B6(13) - 1e+07 B13(12) + 1e+07 B59(4) - I102(14) + I109(12)
   >= -1.999959e+07
 c98: - 1e+07 B6(13) - 1e+07 B13(12) - 1e+07 B59(4) + I102(14) - I109(12)
   >= -2.9999286e+07
 c99: - 1e+07 B7(13) - 1e+07 B14(18) + 1e+07 B59(4) - I103(14) + I110(18)
   >= -1.9998945e+07
 c100: - 1e+07 B7(13) - 1e+07 B14(18) - 1e+07 B59(4) + I103(14) - I110(18)
   >= -2.9999529e+07
 c101: - 1e+07 B6(13) - 1e+07 B8(14) + 1e+07 B64(2) + I102(14) - I104(14)
   >= -1.9999574e+07
 c102: - 1e+07 B6(13) - 1e+07 B8(14) - 1e+07 B64(2) - I102(14) + I104(14)
   >= -2.9999791e+07
 c103: - 1e+07 B8(14) - 1e+07 B13(12) + 1e+07 B68(2) - I104(14) + I109(12)
   >= -1.9999522e+07
 c104: - 1e+07 B8(14) - 1e+07 B13(12) - 1e+07 B68(2) + I104(14) - I109(12)
   >= -2.9999815e+07
 c105: - 1e+07 B9(18) - 1e+07 B11(17) + 1e+07 B76(4) - I105(20) + I107(18)
   >= -1.9999771e+07
 c106: - 1e+07 B9(18) - 1e+07 B11(17) - 1e+07 B76(4) + I105(20) - I107(18)
   >= -2.999962e+07
 c107: - 1e+07 B10(12) - 1e+07 B12(11) + 1e+07 B76(4) - I106(14) + I108(12)
   >= -1.9999756e+07
 c108: - 1e+07 B10(12) - 1e+07 B12(11) - 1e+07 B76(4) + I106(14) - I108(12)
   >= -2.9999748e+07
 c109: - 1e+07 B9(18) - 1e+07 B14(18) + 1e+07 B77(2) - I105(20) + I110(18)
   >= -1.9999604e+07
 c110: - 1e+07 B9(18) - 1e+07 B14(18) - 1e+07 B77(2) + I105(20) - I110(18)
   >= -2.9999536e+07
 c111: - 1e+07 B9(18) - 1e+07 B11(17) + 1e+07 B84(4) + I105(20) - I107(18)
   >= -1.999962e+07
 c112: - 1e+07 B9(18) - 1e+07 B11(17) - 1e+07 B84(4) - I105(20) + I107(18)
   >= -2.9999771e+07
 c113: - 1e+07 B10(12) - 1e+07 B12(11) + 1e+07 B84(4) + I106(14) - I108(12)
   >= -1.9999748e+07
 c114: - 1e+07 B10(12) - 1e+07 B12(11) - 1e+07 B84(4) - I106(14) + I108(12)
   >= -2.9999756e+07
 c115: - 1e+07 B11(17) - 1e+07 B14(18) + 1e+07 B86(2) - I107(18) + I110(18)
   >= -1.9999744e+07
 c116: - 1e+07 B11(17) - 1e+07 B14(18) - 1e+07 B86(2) + I107(18) - I110(18)
   >= -2.999937e+07
 c117: - 1e+07 B9(18) - 1e+07 B14(18) + 1e+07 B93(2) + I105(20) - I110(18)
   >= -1.9999536e+07
 c118: - 1e+07 B9(18) - 1e+07 B14(18) - 1e+07 B93(2) - I105(20) + I110(18)
   >= -2.9999604e+07
 c119: - 1e+07 B11(17) - 1e+07 B14(18) + 1e+07 B94(2) + I107(18) - I110(18)
   >= -1.999937e+07
 c120: - 1e+07 B11(17) - 1e+07 B14(18) - 1e+07 B94(2) - I107(18) + I110(18)
   >= -2.9999744e+07
 c121: I96(18) >= 0
 c122: I97(12) >= 0
 c123: I98(14) >= 0
 c124: I99(16) >= 0
 c125: - 480 B4(14) + I100(14) >= 0
 c126: I100(14) >= 0
 c127: I101(12) >= 0
 c128: I102(14) >= 0
 c129: I103(14) >= 0
 c130: - 480 B8(14) + I104(14) >= 0
 c131: I104(14) >= 0
 c132: I105(20) >= 0
 c133: I106(14) >= 0
 c134: I107(18) >= 0
 c135: I108(12) >= 0
 c136: - 480 B13(12) + I109(12) >= 0
 c137: I109(12) >= 0
 c138: - 480 B14(18) + I110(18) >= 0
 c139: I110(18) >= 0
 qc0: I111(1) + 430 B112(5) + 420 B113(5) + 410 B114(5) + 390 B115(5)
   + 380 B116(5) + [ - I96(18) * B112(5) - I97(12) * B113(5)
   - I101(12) * B114(5) - I105(20) * B115(5) - I106(14) * B116(5) ] >= 0
Bounds
Binaries
 B0(16) B1(10) B2(13) B3(15) B4(14) B5(10) B6(13) B7(13) B8(14) B9(18)
 B10(12) B11(17) B12(11) B13(12) B14(18) B15(0) B16(2) B17(0) B18(2) B19(2)
 B20(0) B21(4) B22(4) B23(2) B24(2) B25(0) B26(2) B27(0) B28(4) B29(2)
 B30(2) B31(2) B32(4) B33(0) B34(2) B35(0) B36(0) B37(2) B38(2) B39(0)
 B40(0) B41(2) B42(0) B43(0) B44(0) B45(0) B46(0) B47(0) B48(2) B49(2)
 B50(0) B51(0) B52(0) B53(0) B54(0) B55(0) B56(2) B57(2) B58(2) B59(4)
 B60(0) B61(0) B62(0) B63(0) B64(2) B65(0) B66(0) B67(0) B68(2) B69(0)
 B70(0) B71(0) B72(0) B73(0) B74(0) B75(0) B76(4) B77(2) B78(0) B79(0)
 B80(0) B81(0) B82(0) B83(0) B84(4) B85(0) B86(2) B87(0) B88(0) B89(0)
 B90(0) B91(0) B92(0) B93(2) B94(2) B95(0) B112(5) B113(5) B114(5) B115(5)
 B116(5)
Generals
 I96(18) I97(12) I98(14) I99(16) I100(14) I101(12) I102(14) I103(14)
 I104(14) I105(20) I106(14) I107(18) I108(12) I109(12) I110(18) I111(1)
End
